p cnf 1565
-25 -487
-26 -490
-27 -493
-28 -496
-29 -499
-30 -502
-31 -505
-32 -508
-33 -511
-34 -514
-35 -517
-36 -520
-37 -523
-38 -526
-39 -529
-40 -532
-41 -535
-42 -538
-43 -541
-44 -544
-45 -547
-46 -550
-47 -553
-48 -556
-49 557
-50 558
-51 559
-52 560
-53 561
-54 562
-55 563
-56 564
-57 565
-58 566
-59 -26
-59 -27
26 27 59
-60 -28
-60 -29
28 29 60
-61 -30
-61 -31
30 31 61
-62 -32
-62 -33
32 33 62
-63 -34
-63 -35
34 35 63
-64 -36
-64 -37
36 37 64
-65 -38
-65 -39
38 39 65
-66 -40
-66 -41
40 41 66
-67 -42
-67 -43
42 43 67
-68 -44
-68 -45
44 45 68
-69 -46
-69 -47
46 47 69
-70 -48
-70 -49
48 49 70
-71 -50
-71 -51
50 51 71
-72 -52
-72 -53
52 53 72
-73 -54
-73 -55
54 55 73
-74 -56
-74 -57
56 57 74
-75 59
-75 60
-59 -60 75
-76 61
-76 62
-61 -62 76
-77 63
-77 64
-63 -64 77
-78 65
-78 66
-65 -66 78
-79 67
-79 68
-67 -68 79
-80 69
-80 70
-69 -70 80
-81 71
-81 72
-71 -72 81
-82 73
-82 74
-73 -74 82
-83 75
-83 76
-75 -76 83
-84 77
-84 78
-77 -78 84
-85 79
-85 80
-79 -80 85
-86 81
-86 82
-81 -82 86
-87 83
-87 84
-83 -84 87
-88 85
-88 86
-85 -86 88
-89 87
-89 88
-87 -88 89
-90 -58
-90 89
58 -89 90
-91 -25
-91 26
25 -26 91
-92 25
-92 -26
-25 26 92
-93 -91
-93 -92
91 92 93
-94 25
-94 26
-25 -26 94
-95 -25
-95 -93
25 93 95
-96 25
-96 93
-25 -93 96
-97 -95
-97 -96
95 96 97
-98 25
-98 -93
-25 93 98
-99 -94
-99 -98
94 98 99
-100 -26
-100 27
26 -27 100
-101 26
-101 -27
-26 27 101
-102 -100
-102 -101
100 101 102
-103 26
-103 27
-26 -27 103
-104 99
-104 -102
-99 102 104
-105 -99
-105 102
99 -102 105
-106 -104
-106 -105
104 105 106
-107 -99
-107 -102
99 102 107
-108 -103
-108 -107
103 107 108
-109 -27
-109 28
27 -28 109
-110 27
-110 -28
-27 28 110
-111 -109
-111 -110
109 110 111
-112 27
-112 28
-27 -28 112
-113 108
-113 -111
-108 111 113
-114 -108
-114 111
108 -111 114
-115 -113
-115 -114
113 114 115
-116 -108
-116 -111
108 111 116
-117 -112
-117 -116
112 116 117
-118 -28
-118 29
28 -29 118
-119 28
-119 -29
-28 29 119
-120 -118
-120 -119
118 119 120
-121 28
-121 29
-28 -29 121
-122 117
-122 -120
-117 120 122
-123 -117
-123 120
117 -120 123
-124 -122
-124 -123
122 123 124
-125 -117
-125 -120
117 120 125
-126 -121
-126 -125
121 125 126
-127 -29
-127 30
29 -30 127
-128 29
-128 -30
-29 30 128
-129 -127
-129 -128
127 128 129
-130 29
-130 30
-29 -30 130
-131 126
-131 -129
-126 129 131
-132 -126
-132 129
126 -129 132
-133 -131
-133 -132
131 132 133
-134 -126
-134 -129
126 129 134
-135 -130
-135 -134
130 134 135
-136 -30
-136 31
30 -31 136
-137 30
-137 -31
-30 31 137
-138 -136
-138 -137
136 137 138
-139 30
-139 31
-30 -31 139
-140 135
-140 -138
-135 138 140
-141 -135
-141 138
135 -138 141
-142 -140
-142 -141
140 141 142
-143 -135
-143 -138
135 138 143
-144 -139
-144 -143
139 143 144
-145 -31
-145 32
31 -32 145
-146 31
-146 -32
-31 32 146
-147 -145
-147 -146
145 146 147
-148 31
-148 32
-31 -32 148
-149 144
-149 -147
-144 147 149
-150 -144
-150 147
144 -147 150
-151 -149
-151 -150
149 150 151
-152 -144
-152 -147
144 147 152
-153 -148
-153 -152
148 152 153
-154 -32
-154 33
32 -33 154
-155 32
-155 -33
-32 33 155
-156 -154
-156 -155
154 155 156
-157 32
-157 33
-32 -33 157
-158 153
-158 -156
-153 156 158
-159 -153
-159 156
153 -156 159
-160 -158
-160 -159
158 159 160
-161 -153
-161 -156
153 156 161
-162 -157
-162 -161
157 161 162
-163 -33
-163 34
33 -34 163
-164 33
-164 -34
-33 34 164
-165 -163
-165 -164
163 164 165
-166 33
-166 34
-33 -34 166
-167 162
-167 -165
-162 165 167
-168 -162
-168 165
162 -165 168
-169 -167
-169 -168
167 168 169
-170 -162
-170 -165
162 165 170
-171 -166
-171 -170
166 170 171
-172 -34
-172 35
34 -35 172
-173 34
-173 -35
-34 35 173
-174 -172
-174 -173
172 173 174
-175 34
-175 35
-34 -35 175
-176 171
-176 -174
-171 174 176
-177 -171
-177 174
171 -174 177
-178 -176
-178 -177
176 177 178
-179 -171
-179 -174
171 174 179
-180 -175
-180 -179
175 179 180
-181 -35
-181 36
35 -36 181
-182 35
-182 -36
-35 36 182
-183 -181
-183 -182
181 182 183
-184 35
-184 36
-35 -36 184
-185 180
-185 -183
-180 183 185
-186 -180
-186 183
180 -183 186
-187 -185
-187 -186
185 186 187
-188 -180
-188 -183
180 183 188
-189 -184
-189 -188
184 188 189
-190 -36
-190 37
36 -37 190
-191 36
-191 -37
-36 37 191
-192 -190
-192 -191
190 191 192
-193 36
-193 37
-36 -37 193
-194 189
-194 -192
-189 192 194
-195 -189
-195 192
189 -192 195
-196 -194
-196 -195
194 195 196
-197 -189
-197 -192
189 192 197
-198 -193
-198 -197
193 197 198
-199 -37
-199 38
37 -38 199
-200 37
-200 -38
-37 38 200
-201 -199
-201 -200
199 200 201
-202 37
-202 38
-37 -38 202
-203 198
-203 -201
-198 201 203
-204 -198
-204 201
198 -201 204
-205 -203
-205 -204
203 204 205
-206 -198
-206 -201
198 201 206
-207 -202
-207 -206
202 206 207
-208 -38
-208 39
38 -39 208
-209 38
-209 -39
-38 39 209
-210 -208
-210 -209
208 209 210
-211 38
-211 39
-38 -39 211
-212 207
-212 -210
-207 210 212
-213 -207
-213 210
207 -210 213
-214 -212
-214 -213
212 213 214
-215 -207
-215 -210
207 210 215
-216 -211
-216 -215
211 215 216
-217 -39
-217 40
39 -40 217
-218 39
-218 -40
-39 40 218
-219 -217
-219 -218
217 218 219
-220 39
-220 40
-39 -40 220
-221 216
-221 -219
-216 219 221
-222 -216
-222 219
216 -219 222
-223 -221
-223 -222
221 222 223
-224 -216
-224 -219
216 219 224
-225 -220
-225 -224
220 224 225
-226 -40
-226 41
40 -41 226
-227 40
-227 -41
-40 41 227
-228 -226
-228 -227
226 227 228
-229 40
-229 41
-40 -41 229
-230 225
-230 -228
-225 228 230
-231 -225
-231 228
225 -228 231
-232 -230
-232 -231
230 231 232
-233 -225
-233 -228
225 228 233
-234 -229
-234 -233
229 233 234
-235 -41
-235 42
41 -42 235
-236 41
-236 -42
-41 42 236
-237 -235
-237 -236
235 236 237
-238 41
-238 42
-41 -42 238
-239 234
-239 -237
-234 237 239
-240 -234
-240 237
234 -237 240
-241 -239
-241 -240
239 240 241
-242 -234
-242 -237
234 237 242
-243 -238
-243 -242
238 242 243
-244 -42
-244 43
42 -43 244
-245 42
-245 -43
-42 43 245
-246 -244
-246 -245
244 245 246
-247 42
-247 43
-42 -43 247
-248 243
-248 -246
-243 246 248
-249 -243
-249 246
243 -246 249
-250 -248
-250 -249
248 249 250
-251 -243
-251 -246
243 246 251
-252 -247
-252 -251
247 251 252
-253 -43
-253 44
43 -44 253
-254 43
-254 -44
-43 44 254
-255 -253
-255 -254
253 254 255
-256 43
-256 44
-43 -44 256
-257 252
-257 -255
-252 255 257
-258 -252
-258 255
252 -255 258
-259 -257
-259 -258
257 258 259
-260 -252
-260 -255
252 255 260
-261 -256
-261 -260
256 260 261
-262 -44
-262 45
44 -45 262
-263 44
-263 -45
-44 45 263
-264 -262
-264 -263
262 263 264
-265 44
-265 45
-44 -45 265
-266 261
-266 -264
-261 264 266
-267 -261
-267 264
261 -264 267
-268 -266
-268 -267
266 267 268
-269 -261
-269 -264
261 264 269
-270 -265
-270 -269
265 269 270
-271 -45
-271 46
45 -46 271
-272 45
-272 -46
-45 46 272
-273 -271
-273 -272
271 272 273
-274 45
-274 46
-45 -46 274
-275 270
-275 -273
-270 273 275
-276 -270
-276 273
270 -273 276
-277 -275
-277 -276
275 276 277
-278 -270
-278 -273
270 273 278
-279 -274
-279 -278
274 278 279
-280 -46
-280 47
46 -47 280
-281 46
-281 -47
-46 47 281
-282 -280
-282 -281
280 281 282
-283 46
-283 47
-46 -47 283
-284 279
-284 -282
-279 282 284
-285 -279
-285 282
279 -282 285
-286 -284
-286 -285
284 285 286
-287 -279
-287 -282
279 282 287
-288 -283
-288 -287
283 287 288
-289 -47
-289 48
47 -48 289
-290 47
-290 -48
-47 48 290
-291 -289
-291 -290
289 290 291
-292 47
-292 48
-47 -48 292
-293 288
-293 -291
-288 291 293
-294 -288
-294 291
288 -291 294
-295 -293
-295 -294
293 294 295
-296 -288
-296 -291
288 291 296
-297 -292
-297 -296
292 296 297
-298 -48
-298 49
48 -49 298
-299 48
-299 -49
-48 49 299
-300 -298
-300 -299
298 299 300
-301 48
-301 49
-48 -49 301
-302 297
-302 -300
-297 300 302
-303 -297
-303 300
297 -300 303
-304 -302
-304 -303
302 303 304
-305 -297
-305 -300
297 300 305
-306 -301
-306 -305
301 305 306
-307 -49
-307 50
49 -50 307
-308 49
-308 -50
-49 50 308
-309 -307
-309 -308
307 308 309
-310 49
-310 50
-49 -50 310
-311 306
-311 -309
-306 309 311
-312 -306
-312 309
306 -309 312
-313 -311
-313 -312
311 312 313
-314 -306
-314 -309
306 309 314
-315 -310
-315 -314
310 314 315
-316 -50
-316 51
50 -51 316
-317 50
-317 -51
-50 51 317
-318 -316
-318 -317
316 317 318
-319 50
-319 51
-50 -51 319
-320 315
-320 -318
-315 318 320
-321 -315
-321 318
315 -318 321
-322 -320
-322 -321
320 321 322
-323 -315
-323 -318
315 318 323
-324 -319
-324 -323
319 323 324
-325 -51
-325 52
51 -52 325
-326 51
-326 -52
-51 52 326
-327 -325
-327 -326
325 326 327
-328 51
-328 52
-51 -52 328
-329 324
-329 -327
-324 327 329
-330 -324
-330 327
324 -327 330
-331 -329
-331 -330
329 330 331
-332 -324
-332 -327
324 327 332
-333 -328
-333 -332
328 332 333
-334 -52
-334 53
52 -53 334
-335 52
-335 -53
-52 53 335
-336 -334
-336 -335
334 335 336
-337 52
-337 53
-52 -53 337
-338 333
-338 -336
-333 336 338
-339 -333
-339 336
333 -336 339
-340 -338
-340 -339
338 339 340
-341 -333
-341 -336
333 336 341
-342 -337
-342 -341
337 341 342
-343 -53
-343 54
53 -54 343
-344 53
-344 -54
-53 54 344
-345 -343
-345 -344
343 344 345
-346 53
-346 54
-53 -54 346
-347 342
-347 -345
-342 345 347
-348 -342
-348 345
342 -345 348
-349 -347
-349 -348
347 348 349
-350 -342
-350 -345
342 345 350
-351 -346
-351 -350
346 350 351
-352 -54
-352 55
54 -55 352
-353 54
-353 -55
-54 55 353
-354 -352
-354 -353
352 353 354
-355 54
-355 55
-54 -55 355
-356 351
-356 -354
-351 354 356
-357 -351
-357 354
351 -354 357
-358 -356
-358 -357
356 357 358
-359 -351
-359 -354
351 354 359
-360 -355
-360 -359
355 359 360
-361 -55
-361 56
55 -56 361
-362 55
-362 -56
-55 56 362
-363 -361
-363 -362
361 362 363
-364 55
-364 56
-55 -56 364
-365 360
-365 -363
-360 363 365
-366 -360
-366 363
360 -363 366
-367 -365
-367 -366
365 366 367
-368 -360
-368 -363
360 363 368
-369 -364
-369 -368
364 368 369
-370 -56
-370 57
56 -57 370
-371 56
-371 -57
-56 57 371
-372 -370
-372 -371
370 371 372
-373 56
-373 57
-56 -57 373
-374 369
-374 -372
-369 372 374
-375 -369
-375 372
369 -372 375
-376 -374
-376 -375
374 375 376
-377 -369
-377 -372
369 372 377
-378 -373
-378 -377
373 377 378
-379 -57
-379 58
57 -58 379
-380 57
-380 -58
-57 58 380
-381 -379
-381 -380
379 380 381
-382 57
-382 58
-57 -58 382
-383 378
-383 -381
-378 381 383
-384 -378
-384 381
378 -381 384
-385 -383
-385 -384
383 384 385
-386 -378
-386 -381
378 381 386
-387 -382
-387 -386
382 386 387
-388 25
-388 -97
-25 97 388
-389 -25
-389 27
25 -27 389
-390 -388
-390 -389
388 389 390
-391 25
-391 -106
-25 106 391
-392 -25
-392 28
25 -28 392
-393 -391
-393 -392
391 392 393
-394 25
-394 -115
-25 115 394
-395 -25
-395 29
25 -29 395
-396 -394
-396 -395
394 395 396
-397 25
-397 -124
-25 124 397
-398 -25
-398 30
25 -30 398
-399 -397
-399 -398
397 398 399
-400 25
-400 -133
-25 133 400
-401 -25
-401 31
25 -31 401
-402 -400
-402 -401
400 401 402
-403 25
-403 -142
-25 142 403
-404 -25
-404 32
25 -32 404
-405 -403
-405 -404
403 404 405
-406 25
-406 -151
-25 151 406
-407 -25
-407 33
25 -33 407
-408 -406
-408 -407
406 407 408
-409 25
-409 -160
-25 160 409
-410 -25
-410 34
25 -34 410
-411 -409
-411 -410
409 410 411
-412 25
-412 -169
-25 169 412
-413 -25
-413 35
25 -35 413
-414 -412
-414 -413
412 413 414
-415 25
-415 -178
-25 178 415
-416 -25
-416 36
25 -36 416
-417 -415
-417 -416
415 416 417
-418 25
-418 -187
-25 187 418
-419 -25
-419 37
25 -37 419
-420 -418
-420 -419
418 419 420
-421 25
-421 -196
-25 196 421
-422 -25
-422 38
25 -38 422
-423 -421
-423 -422
421 422 423
-424 25
-424 -205
-25 205 424
-425 -25
-425 39
25 -39 425
-426 -424
-426 -425
424 425 426
-427 25
-427 -214
-25 214 427
-428 -25
-428 40
25 -40 428
-429 -427
-429 -428
427 428 429
-430 25
-430 -223
-25 223 430
-431 -25
-431 41
25 -41 431
-432 -430
-432 -431
430 431 432
-433 25
-433 -232
-25 232 433
-434 -25
-434 42
25 -42 434
-435 -433
-435 -434
433 434 435
-436 25
-436 -241
-25 241 436
-437 -25
-437 43
25 -43 437
-438 -436
-438 -437
436 437 438
-439 25
-439 -250
-25 250 439
-440 -25
-440 44
25 -44 440
-441 -439
-441 -440
439 440 441
-442 25
-442 -259
-25 259 442
-443 -25
-443 45
25 -45 443
-444 -442
-444 -443
442 443 444
-445 25
-445 -268
-25 268 445
-446 -25
-446 46
25 -46 446
-447 -445
-447 -446
445 446 447
-448 25
-448 -277
-25 277 448
-449 -25
-449 47
25 -47 449
-450 -448
-450 -449
448 449 450
-451 25
-451 -286
-25 286 451
-452 -25
-452 48
25 -48 452
-453 -451
-453 -452
451 452 453
-454 25
-454 -295
-25 295 454
-455 -25
-455 49
25 -49 455
-456 -454
-456 -455
454 455 456
-457 25
-457 -304
-25 304 457
-458 -25
-458 50
25 -50 458
-459 -457
-459 -458
457 458 459
-460 25
-460 -313
-25 313 460
-461 -25
-461 51
25 -51 461
-462 -460
-462 -461
460 461 462
-463 25
-463 -322
-25 322 463
-464 -25
-464 52
25 -52 464
-465 -463
-465 -464
463 464 465
-466 25
-466 -331
-25 331 466
-467 -25
-467 53
25 -53 467
-468 -466
-468 -467
466 467 468
-469 25
-469 -340
-25 340 469
-470 -25
-470 54
25 -54 470
-471 -469
-471 -470
469 470 471
-472 25
-472 -349
-25 349 472
-473 -25
-473 55
25 -55 473
-474 -472
-474 -473
472 473 474
-475 25
-475 -358
-25 358 475
-476 -25
-476 56
25 -56 476
-477 -475
-477 -476
475 476 477
-478 25
-478 -367
-25 367 478
-479 -25
-479 57
25 -57 479
-480 -478
-480 -479
478 479 480
-481 25
-481 -376
-25 376 481
-482 -25
-482 58
25 -58 482
-483 -481
-483 -482
481 482 483
-484 25
-484 -385
-25 385 484
-485 1
-485 90
-1 -90 485
-486 -90
-486 91
90 -91 486
-487 -485
-487 -486
485 486 487
-488 2
-488 90
-2 -90 488
-489 -90
-489 -390
90 390 489
-490 -488
-490 -489
488 489 490
-491 3
-491 90
-3 -90 491
-492 -90
-492 -393
90 393 492
-493 -491
-493 -492
491 492 493
-494 4
-494 90
-4 -90 494
-495 -90
-495 -396
90 396 495
-496 -494
-496 -495
494 495 496
-497 5
-497 90
-5 -90 497
-498 -90
-498 -399
90 399 498
-499 -497
-499 -498
497 498 499
-500 6
-500 90
-6 -90 500
-501 -90
-501 -402
90 402 501
-502 -500
-502 -501
500 501 502
-503 7
-503 90
-7 -90 503
-504 -90
-504 -405
90 405 504
-505 -503
-505 -504
503 504 505
-506 8
-506 90
-8 -90 506
-507 -90
-507 -408
90 408 507
-508 -506
-508 -507
506 507 508
-509 9
-509 90
-9 -90 509
-510 -90
-510 -411
90 411 510
-511 -509
-511 -510
509 510 511
-512 10
-512 90
-10 -90 512
-513 -90
-513 -414
90 414 513
-514 -512
-514 -513
512 513 514
-515 11
-515 90
-11 -90 515
-516 -90
-516 -417
90 417 516
-517 -515
-517 -516
515 516 517
-518 12
-518 90
-12 -90 518
-519 -90
-519 -420
90 420 519
-520 -518
-520 -519
518 519 520
-521 13
-521 90
-13 -90 521
-522 -90
-522 -423
90 423 522
-523 -521
-523 -522
521 522 523
-524 14
-524 90
-14 -90 524
-525 -90
-525 -426
90 426 525
-526 -524
-526 -525
524 525 526
-527 15
-527 90
-15 -90 527
-528 -90
-528 -429
90 429 528
-529 -527
-529 -528
527 528 529
-530 16
-530 90
-16 -90 530
-531 -90
-531 -432
90 432 531
-532 -530
-532 -531
530 531 532
-533 17
-533 90
-17 -90 533
-534 -90
-534 -435
90 435 534
-535 -533
-535 -534
533 534 535
-536 18
-536 90
-18 -90 536
-537 -90
-537 -438
90 438 537
-538 -536
-538 -537
536 537 538
-539 19
-539 90
-19 -90 539
-540 -90
-540 -441
90 441 540
-541 -539
-541 -540
539 540 541
-542 20
-542 90
-20 -90 542
-543 -90
-543 -444
90 444 543
-544 -542
-544 -543
542 543 544
-545 21
-545 90
-21 -90 545
-546 -90
-546 -447
90 447 546
-547 -545
-547 -546
545 546 547
-548 22
-548 90
-22 -90 548
-549 -90
-549 -450
90 450 549
-550 -548
-550 -549
548 549 550
-551 23
-551 90
-23 -90 551
-552 -90
-552 -453
90 453 552
-553 -551
-553 -552
551 552 553
-554 24
-554 90
-24 -90 554
-555 -90
-555 -456
90 456 555
-556 -554
-556 -555
554 555 556
-557 -90
-557 -459
90 459 557
-558 -90
-558 -462
90 462 558
-559 -90
-559 -465
90 465 559
-560 -90
-560 -468
90 468 560
-561 -90
-561 -471
90 471 561
-562 -90
-562 -474
90 474 562
-563 -90
-563 -477
90 477 563
-564 -90
-564 -480
90 480 564
-565 -90
-565 -483
90 483 565
-566 -90
-566 484
90 -484 566
-567 -58
-567 387
58 -387 567
-568 25
-568 -567
-25 567 568
568
